10
5
1005101
0
0
86 83 9 64 94 
1
0
85 87 4 63 94 
2
0
85 86 9 64 87 
3
0
87 84 2 67 88 
4
0
79 92 8 64 93 
5
0
84 87 6 59 94 
6
0
84 87 6 57 94 
7
0
83 84 6 60 90 
8
0
86 88 2 64 88 
9
0
81 92 10 64 93 
